results/x-10M/X-n134-k13.vrp_seed-1.vrp.sol
Route #1: 47 9 2 39 73 18 96 59
Route #2: 13 63 15 81 84 107 70 4 27 22 55 126 20 67 44 8 30 68 7 121 5 97 6 108
Route #3: 128 125 115 80 130 19 17 109 132
Route #4: 76 82 133 12 124 33 86 72 3
Route #5: 103 10 62 32 54 110 123 56
Route #6: 127 48 64 117 49 69 1 92 31
Route #7: 118 91 51 16 14 60 95
Route #8: 90 66 53 77 23 98 75 28 65 42 93 94 102 88 37 24
Route #9: 112 79 43 36 111 120 71 61 29
Route #10: 78 87 74 26 35 50 38 83
Route #11: 85 106 45 21 46 99 104 57 119
Route #12: 129 116 89 113 25 105 41 34 58
Route #13: 100 122 11 114 131 101 52 40
Cost 10916.000000